NAME          OptimizationProblem
ROWS
 N  COST
 L  CON1
 L  CON2
 G  CON3
 G  CON4
COLUMNS
    x1        COST        3
    x1        CON1       -2
    x1        CON2        5
    x1        CON3        5
    x1        CON4        4
    x2        COST       -4
    x2        CON1       -1
    x2        CON2        3
    x2        CON3        3
    x2        CON4        6
    x3        COST        5
    x3        CON1       -4
    x3        CON2        1
    x3        CON4        2
    x4        COST       -2
    x4        CON1       -2
    x4        CON2        2
    x4        CON3        1
    x4        CON4        5
RHS
    RHS1      CON1        4
    RHS1      CON2       18
    RHS1      CON3      -13
    RHS1      CON4      -10
BOUNDS
 LO BND1      x1         0
 LO BND1      x2         0
 LO BND1      x3         0
 LO BND1      x4         0
ENDATA
